% Strimko Monthly #02
n = 7;
streams = array2d(1..n, 1..n*2, [
        1,1, 1,2, 2,1, 2,2, 3,1, 3,3, 4,4,
        1,3, 1,4, 1,5, 1,6, 1,7, 2,3, 2,7,
        2,4, 2,5, 2,6, 3,4, 3,5, 4,3, 4,5,
        3,2, 4,1, 4,2, 5,1, 6,2, 6,4, 7,3,
        3,6, 3,7, 4,6, 4,7, 5,7, 6,5, 6,6,
        5,2, 5,3, 5,4, 6,1, 6,3, 7,1, 7,2,
        5,5, 5,6, 6,7, 7,4, 7,5, 7,6, 7,7
]);

num_placed = 10;
placed = array2d(1..num_placed, 1..3, [
                    2,1,1,
                    2,3,7,
                    2,5,6,
                    2,7,4,
                    3,2,7,
                    3,6,1,
                    4,1,4,
                    4,7,5,
                    5,2,2,
                    5,6,6
]);
